experiment/data/hgs-res/Vrp-Set-E-n30/Vrp-Set-E-n30-hgs/0.hgs1.vrp
NAME : 0
COMMENT : CVRP Instance
TYPE : CVRP
DIMENSION : 30
EDGE_WEIGHT_TYPE : EUC_2D
CAPACITY : 4500
NODE_COORD_SECTION
1	162.0	354.0
2	218.0	382.0
3	218.0	358.0
4	201.0	370.0
5	214.0	371.0
6	224.0	370.0
7	210.0	382.0
8	104.0	354.0
9	126.0	338.0
10	119.0	340.0
11	129.0	349.0
12	126.0	347.0
13	125.0	346.0
14	116.0	355.0
15	126.0	335.0
16	125.0	355.0
17	119.0	357.0
18	115.0	341.0
19	153.0	351.0
20	175.0	363.0
21	180.0	360.0
22	159.0	331.0
23	188.0	357.0
24	152.0	349.0
25	215.0	389.0
26	212.0	394.0
27	188.0	393.0
28	207.0	406.0
29	184.0	410.0
30	207.0	392.0
DEMAND_SECTION
1	0
2	300
3	3100
4	125
5	100
6	200
7	150
8	150
9	450
10	300
11	100
12	950
13	125
14	150
15	150
16	550
17	150
18	100
19	150
20	400
21	300
22	1500
23	100
24	300
25	500
26	800
27	300
28	100
29	150
30	1000
DEPOT_SECTION
1
-1
EOF
